(set-info :min-time 1.451935514)
; Start decls (7)
(declare-fun b10 () (_ FloatingPoint 11 53))
(declare-fun b11 () (_ FloatingPoint 11 53))
(declare-fun b13 () (_ FloatingPoint 11 53))
(declare-fun b19 () (_ FloatingPoint 11 53))
(declare-fun b22 () (_ FloatingPoint 11 53))
(declare-fun b54 () (_ FloatingPoint 11 53))
(declare-fun b57 () (_ FloatingPoint 11 53))
; End decls
; Start constraints (12)
(assert (fp.lt (fp.add roundNearestTiesToEven b11 b10) b13))
(assert (fp.lt (fp.add roundNearestTiesToEven b13 b19)
       (fp.mul roundNearestTiesToEven b10 b22)))
(assert (fp.lt (fp.mul roundNearestTiesToEven b11 b10) b13))
(assert (fp.lt (fp.add roundNearestTiesToEven b10 (fp.neg b11)) b19))
(assert (fp.leq b10 b54))
(assert (fp.leq b57 b10))
(assert (fp.leq b11 b54))
(assert (fp.leq b57 b11))
(assert (fp.leq b13 b54))
(assert (fp.leq b57 b13))
(assert (fp.leq b19 b54))
(assert (fp.leq b57 b19))
; End constraints
(check-sat)
